DIMENSION: 7
EDGE_WEIGHT_TYPE: EXPLICIT
EDGE_WEIGHT_FORMAT: FULL_MATRIX
EDGE_WEIGHT_SECTION:
32767 32767 32767 23 32767 41 60 
32767 32767 32767 32767 87 40 32767 
32767 32767 32767 32767 32767 32767 32767 
23 32767 32767 32767 32767 32767 32767 
32767 87 32767 32767 32767 49 29 
41 40 32767 32767 49 32767 32767 
60 32767 32767 32767 29 32767 32767 
EOF